2 49

100 7570
99 7607
98 7676
97 7699
96 7711
95 7724
94 7738
93 7752
92 7760
91 7768
90 7779
89 7789
88 7800
87 7806
86 7818
85 7829
84 7842
83 7844
82 7852
81 7867
80 7877
79 7891
78 7894
77 7899
76 7906
75 7910
74 7915
73 7919
72 7923
71 7930
70 7934
69 7938
68 7942
67 7944
66 7952
64 7958
63 7961
62 7965
61 7970
60 7979
59 7981
56 7987
55 7991
54 7992
53 7997
51 7998
50 8001
48 8004
47 8008
